NAME: 760.vrp-C153-R5
TYPE: SoftCluVRP
DIMENSION:  761 
VEHICLES:  78 
GVRP_SETS:  153 
CAPACITY:  900 
EDGE_WEIGHT_TYPE: EUC_2D
NODE_COORD_SECTION 
1 0.000000 0.000000
2 30.000000 0.000000
3 29.897499 2.477400
4 29.590799 4.937800
5 29.082001 7.364600
6 28.374500 9.741000
7 27.473200 12.050900
8 26.384199 14.278400
9 25.115000 16.408400
10 23.674200 18.426399
11 22.071699 20.318399
12 20.318399 22.071699
13 18.426399 23.674200
14 16.408400 25.115000
15 14.278400 26.384199
16 12.050900 27.473200
17 9.741000 28.374500
18 7.364600 29.082001
19 4.937800 29.590799
20 2.477400 29.897499
21 0.000000 30.000000
22 -2.477400 29.897499
23 -4.937800 29.590799
24 -7.364600 29.082001
25 -9.741000 28.374500
26 -12.050900 27.473200
27 -14.278400 26.384199
28 -16.408400 25.115000
29 -18.426399 23.674200
30 -20.318399 22.071699
31 -22.071699 20.318399
32 -23.674200 18.426399
33 -25.115000 16.408400
34 -26.384199 14.278400
35 -27.473200 12.050900
36 -28.374500 9.741000
37 -29.082001 7.364600
38 -29.590799 4.937800
39 -29.897499 2.477400
40 -30.000000 0.000000
41 -29.897499 -2.477400
42 -29.590799 -4.937800
43 -29.082001 -7.364600
44 -28.374500 -9.741000
45 -27.473200 -12.050900
46 -26.384199 -14.278400
47 -25.115000 -16.408400
48 -23.674200 -18.426399
49 -22.071699 -20.318399
50 -20.318399 -22.071699
51 -18.426399 -23.674200
52 -16.408400 -25.115000
53 -14.278400 -26.384199
54 -12.050900 -27.473200
55 -9.741000 -28.374500
56 -7.364600 -29.082001
57 -4.937800 -29.590799
58 -2.477400 -29.897499
59 -0.000000 -30.000000
60 2.477400 -29.897499
61 4.937800 -29.590799
62 7.364600 -29.082001
63 9.741000 -28.374500
64 12.050900 -27.473200
65 14.278400 -26.384199
66 16.408400 -25.115000
67 18.426399 -23.674200
68 20.318399 -22.071699
69 22.071699 -20.318399
70 23.674200 -18.426399
71 25.115000 -16.408400
72 26.384199 -14.278400
73 27.473200 -12.050900
74 28.374500 -9.741000
75 29.082001 -7.364600
76 29.590799 -4.937800
77 29.897499 -2.477400
78 60.000000 0.000000
79 59.795101 4.954800
80 59.181702 9.875700
81 58.164001 14.729100
82 56.749001 19.482000
83 54.946400 24.101700
84 52.768398 28.556801
85 50.230000 32.816898
86 47.348400 36.852798
87 44.143398 40.636902
88 40.636902 44.143398
89 36.852798 47.348400
90 32.816898 50.230000
91 28.556801 52.768398
92 24.101700 54.946400
93 19.482000 56.749001
94 14.729100 58.164001
95 9.875700 59.181702
96 4.954800 59.795101
97 0.000000 60.000000
98 -4.954800 59.795101
99 -9.875700 59.181702
100 -14.729100 58.164001
101 -19.482000 56.749001
102 -24.101700 54.946400
103 -28.556801 52.768398
104 -32.816898 50.230000
105 -36.852798 47.348400
106 -40.636902 44.143398
107 -44.143398 40.636902
108 -47.348400 36.852798
109 -50.230000 32.816898
110 -52.768398 28.556801
111 -54.946400 24.101700
112 -56.749001 19.482000
113 -58.164001 14.729100
114 -59.181702 9.875700
115 -59.795101 4.954800
116 -60.000000 0.000000
117 -59.795101 -4.954800
118 -59.181702 -9.875700
119 -58.164001 -14.729100
120 -56.749001 -19.482000
121 -54.946400 -24.101700
122 -52.768398 -28.556801
123 -50.230000 -32.816898
124 -47.348400 -36.852798
125 -44.143398 -40.636902
126 -40.636902 -44.143398
127 -36.852798 -47.348400
128 -32.816898 -50.230000
129 -28.556801 -52.768398
130 -24.101700 -54.946400
131 -19.482000 -56.749001
132 -14.729100 -58.164001
133 -9.875700 -59.181702
134 -4.954800 -59.795101
135 -0.000000 -60.000000
136 4.954800 -59.795101
137 9.875700 -59.181702
138 14.729100 -58.164001
139 19.482000 -56.749001
140 24.101700 -54.946400
141 28.556801 -52.768398
142 32.816898 -50.230000
143 36.852798 -47.348400
144 40.636902 -44.143398
145 44.143398 -40.636902
146 47.348400 -36.852798
147 50.230000 -32.816898
148 52.768398 -28.556801
149 54.946400 -24.101700
150 56.749001 -19.482000
151 58.164001 -14.729100
152 59.181702 -9.875700
153 59.795101 -4.954800
154 90.000000 0.000000
155 89.692596 7.432100
156 88.772499 14.813500
157 87.246002 22.093700
158 85.123596 29.223000
159 82.419601 36.152599
160 79.152603 42.835300
161 75.345001 49.225300
162 71.022598 55.279099
163 66.215202 60.955299
164 60.955299 66.215202
165 55.279099 71.022598
166 49.225300 75.345001
167 42.835300 79.152603
168 36.152599 82.419601
169 29.223000 85.123596
170 22.093700 87.246002
171 14.813500 88.772499
172 7.432100 89.692596
173 0.000000 90.000000
174 -7.432100 89.692596
175 -14.813500 88.772499
176 -22.093700 87.246002
177 -29.223000 85.123596
178 -36.152599 82.419601
179 -42.835300 79.152603
180 -49.225300 75.345001
181 -55.279099 71.022598
182 -60.955299 66.215202
183 -66.215202 60.955299
184 -71.022598 55.279099
185 -75.345001 49.225300
186 -79.152603 42.835300
187 -82.419601 36.152599
188 -85.123596 29.223000
189 -87.246002 22.093700
190 -88.772499 14.813500
191 -89.692596 7.432100
192 -90.000000 0.000000
193 -89.692596 -7.432100
194 -88.772499 -14.813500
195 -87.246002 -22.093700
196 -85.123596 -29.223000
197 -82.419601 -36.152599
198 -79.152603 -42.835300
199 -75.345001 -49.225300
200 -71.022598 -55.279099
201 -66.215202 -60.955299
202 -60.955299 -66.215202
203 -55.279099 -71.022598
204 -49.225300 -75.345001
205 -42.835300 -79.152603
206 -36.152599 -82.419601
207 -29.223000 -85.123596
208 -22.093700 -87.246002
209 -14.813500 -88.772499
210 -7.432100 -89.692596
211 -0.000000 -90.000000
212 7.432100 -89.692596
213 14.813500 -88.772499
214 22.093700 -87.246002
215 29.223000 -85.123596
216 36.152599 -82.419601
217 42.835300 -79.152603
218 49.225300 -75.345001
219 55.279099 -71.022598
220 60.955299 -66.215202
221 66.215202 -60.955299
222 71.022598 -55.279099
223 75.345001 -49.225300
224 79.152603 -42.835300
225 82.419601 -36.152599
226 85.123596 -29.223000
227 87.246002 -22.093700
228 88.772499 -14.813500
229 89.692596 -7.432100
230 120.000000 0.000000
231 119.590103 9.909500
232 118.363403 19.751400
233 116.328003 29.458300
234 113.498100 38.963902
235 109.892799 48.203499
236 105.536903 57.113701
237 100.459999 65.633797
238 94.696899 73.705498
239 88.286903 81.273804
240 81.273804 88.286903
241 73.705498 94.696899
242 65.633797 100.459999
243 57.113701 105.536903
244 48.203499 109.892799
245 38.963902 113.498100
246 29.458300 116.328003
247 19.751400 118.363403
248 9.909500 119.590103
249 0.000000 120.000000
250 -9.909500 119.590103
251 -19.751400 118.363403
252 -29.458300 116.328003
253 -38.963902 113.498100
254 -48.203499 109.892799
255 -57.113701 105.536903
256 -65.633797 100.459999
257 -73.705498 94.696899
258 -81.273804 88.286903
259 -88.286903 81.273804
260 -94.696899 73.705498
261 -100.459999 65.633797
262 -105.536903 57.113701
263 -109.892799 48.203499
264 -113.498100 38.963902
265 -116.328003 29.458300
266 -118.363403 19.751400
267 -119.590103 9.909500
268 -120.000000 0.000000
269 -119.590103 -9.909500
270 -118.363403 -19.751400
271 -116.328003 -29.458300
272 -113.498100 -38.963902
273 -109.892799 -48.203499
274 -105.536903 -57.113701
275 -100.459999 -65.633797
276 -94.696899 -73.705498
277 -88.286903 -81.273804
278 -81.273804 -88.286903
279 -73.705498 -94.696899
280 -65.633797 -100.459999
281 -57.113701 -105.536903
282 -48.203499 -109.892799
283 -38.963902 -113.498100
284 -29.458300 -116.328003
285 -19.751400 -118.363403
286 -9.909500 -119.590103
287 -0.000000 -120.000000
288 9.909500 -119.590103
289 19.751400 -118.363403
290 29.458300 -116.328003
291 38.963902 -113.498100
292 48.203499 -109.892799
293 57.113701 -105.536903
294 65.633797 -100.459999
295 73.705498 -94.696899
296 81.273804 -88.286903
297 88.286903 -81.273804
298 94.696899 -73.705498
299 100.459999 -65.633797
300 105.536903 -57.113701
301 109.892799 -48.203499
302 113.498100 -38.963902
303 116.328003 -29.458300
304 118.363403 -19.751400
305 119.590103 -9.909500
306 150.000000 0.000000
307 149.487701 12.386900
308 147.954193 24.689199
309 145.410004 36.822800
310 141.872604 48.704899
311 137.365997 60.254299
312 131.921097 71.392097
313 125.574997 82.042198
314 118.371101 92.131897
315 110.358597 101.592201
316 101.592201 110.358597
317 92.131897 118.371101
318 82.042198 125.574997
319 71.392097 131.921097
320 60.254299 137.365997
321 48.704899 141.872604
322 36.822800 145.410004
323 24.689199 147.954193
324 12.386900 149.487701
325 0.000000 150.000000
326 -12.386900 149.487701
327 -24.689199 147.954193
328 -36.822800 145.410004
329 -48.704899 141.872604
330 -60.254299 137.365997
331 -71.392097 131.921097
332 -82.042198 125.574997
333 -92.131897 118.371101
334 -101.592201 110.358597
335 -110.358597 101.592201
336 -118.371101 92.131897
337 -125.574997 82.042198
338 -131.921097 71.392097
339 -137.365997 60.254299
340 -141.872604 48.704899
341 -145.410004 36.822800
342 -147.954193 24.689199
343 -149.487701 12.386900
344 -150.000000 0.000000
345 -149.487701 -12.386900
346 -147.954193 -24.689199
347 -145.410004 -36.822800
348 -141.872604 -48.704899
349 -137.365997 -60.254299
350 -131.921097 -71.392097
351 -125.574997 -82.042198
352 -118.371101 -92.131897
353 -110.358597 -101.592201
354 -101.592201 -110.358597
355 -92.131897 -118.371101
356 -82.042198 -125.574997
357 -71.392097 -131.921097
358 -60.254299 -137.365997
359 -48.704899 -141.872604
360 -36.822800 -145.410004
361 -24.689199 -147.954193
362 -12.386900 -149.487701
363 -0.000000 -150.000000
364 12.386900 -149.487701
365 24.689199 -147.954193
366 36.822800 -145.410004
367 48.704899 -141.872604
368 60.254299 -137.365997
369 71.392097 -131.921097
370 82.042198 -125.574997
371 92.131897 -118.371101
372 101.592201 -110.358597
373 110.358597 -101.592201
374 118.371101 -92.131897
375 125.574997 -82.042198
376 131.921097 -71.392097
377 137.365997 -60.254299
378 141.872604 -48.704899
379 145.410004 -36.822800
380 147.954193 -24.689199
381 149.487701 -12.386900
382 180.000000 0.000000
383 179.385193 14.864300
384 177.544998 29.627001
385 174.492004 44.187401
386 170.247101 58.445900
387 164.839203 72.305199
388 158.305298 85.670502
389 150.690002 98.450699
390 142.045303 110.558296
391 132.430298 121.910698
392 121.910698 132.430298
393 110.558296 142.045303
394 98.450699 150.690002
395 85.670502 158.305298
396 72.305199 164.839203
397 58.445900 170.247101
398 44.187401 174.492004
399 29.627001 177.544998
400 14.864300 179.385193
401 0.000000 180.000000
402 -14.864300 179.385193
403 -29.627001 177.544998
404 -44.187401 174.492004
405 -58.445900 170.247101
406 -72.305199 164.839203
407 -85.670502 158.305298
408 -98.450699 150.690002
409 -110.558296 142.045303
410 -121.910698 132.430298
411 -132.430298 121.910698
412 -142.045303 110.558296
413 -150.690002 98.450699
414 -158.305298 85.670502
415 -164.839203 72.305199
416 -170.247101 58.445900
417 -174.492004 44.187401
418 -177.544998 29.627001
419 -179.385193 14.864300
420 -180.000000 0.000000
421 -179.385193 -14.864300
422 -177.544998 -29.627001
423 -174.492004 -44.187401
424 -170.247101 -58.445900
425 -164.839203 -72.305199
426 -158.305298 -85.670502
427 -150.690002 -98.450699
428 -142.045303 -110.558296
429 -132.430298 -121.910698
430 -121.910698 -132.430298
431 -110.558296 -142.045303
432 -98.450699 -150.690002
433 -85.670502 -158.305298
434 -72.305199 -164.839203
435 -58.445900 -170.247101
436 -44.187401 -174.492004
437 -29.627001 -177.544998
438 -14.864300 -179.385193
439 -0.000000 -180.000000
440 14.864300 -179.385193
441 29.627001 -177.544998
442 44.187401 -174.492004
443 58.445900 -170.247101
444 72.305199 -164.839203
445 85.670502 -158.305298
446 98.450699 -150.690002
447 110.558296 -142.045303
448 121.910698 -132.430298
449 132.430298 -121.910698
450 142.045303 -110.558296
451 150.690002 -98.450699
452 158.305298 -85.670502
453 164.839203 -72.305199
454 170.247101 -58.445900
455 174.492004 -44.187401
456 177.544998 -29.627001
457 179.385193 -14.864300
458 210.000000 0.000000
459 209.282700 17.341700
460 207.135895 34.564899
461 203.574097 51.551998
462 198.621597 68.186897
463 192.312393 84.356003
464 184.689499 99.948997
465 175.804993 114.859100
466 165.719498 128.984695
467 154.501999 142.229095
468 142.229095 154.501999
469 128.984695 165.719498
470 114.859100 175.804993
471 99.948997 184.689499
472 84.356003 192.312393
473 68.186897 198.621597
474 51.551998 203.574097
475 34.564899 207.135895
476 17.341700 209.282700
477 0.000000 210.000000
478 -17.341700 209.282700
479 -34.564899 207.135895
480 -51.551998 203.574097
481 -68.186897 198.621597
482 -84.356003 192.312393
483 -99.948997 184.689499
484 -114.859100 175.804993
485 -128.984695 165.719498
486 -142.229095 154.501999
487 -154.501999 142.229095
488 -165.719498 128.984695
489 -175.804993 114.859100
490 -184.689499 99.948997
491 -192.312393 84.356003
492 -198.621597 68.186897
493 -203.574097 51.551998
494 -207.135895 34.564899
495 -209.282700 17.341700
496 -210.000000 0.000000
497 -209.282700 -17.341700
498 -207.135895 -34.564899
499 -203.574097 -51.551998
500 -198.621597 -68.186897
501 -192.312393 -84.356003
502 -184.689499 -99.948997
503 -175.804993 -114.859100
504 -165.719498 -128.984695
505 -154.501999 -142.229095
506 -142.229095 -154.501999
507 -128.984695 -165.719498
508 -114.859100 -175.804993
509 -99.948997 -184.689499
510 -84.356003 -192.312393
511 -68.186897 -198.621597
512 -51.551998 -203.574097
513 -34.564899 -207.135895
514 -17.341700 -209.282700
515 -0.000000 -210.000000
516 17.341700 -209.282700
517 34.564899 -207.135895
518 51.551998 -203.574097
519 68.186897 -198.621597
520 84.356003 -192.312393
521 99.948997 -184.689499
522 114.859100 -175.804993
523 128.984695 -165.719498
524 142.229095 -154.501999
525 154.501999 -142.229095
526 165.719498 -128.984695
527 175.804993 -114.859100
528 184.689499 -99.948997
529 192.312393 -84.356003
530 198.621597 -68.186897
531 203.574097 -51.551998
532 207.135895 -34.564899
533 209.282700 -17.341700
534 240.000000 0.000000
535 239.180298 19.819000
536 236.726700 39.502701
537 232.656097 58.916500
538 226.996094 77.927902
539 219.785599 96.406898
540 211.073700 114.227402
541 200.919998 131.267593
542 189.393707 147.411102
543 176.573700 162.547607
544 162.547607 176.573700
545 147.411102 189.393707
546 131.267593 200.919998
547 114.227402 211.073700
548 96.406898 219.785599
549 77.927902 226.996094
550 58.916500 232.656097
551 39.502701 236.726700
552 19.819000 239.180298
553 0.000000 240.000000
554 -19.819000 239.180298
555 -39.502701 236.726700
556 -58.916500 232.656097
557 -77.927902 226.996094
558 -96.406898 219.785599
559 -114.227402 211.073700
560 -131.267593 200.919998
561 -147.411102 189.393707
562 -162.547607 176.573700
563 -176.573700 162.547607
564 -189.393707 147.411102
565 -200.919998 131.267593
566 -211.073700 114.227402
567 -219.785599 96.406898
568 -226.996094 77.927902
569 -232.656097 58.916500
570 -236.726700 39.502701
571 -239.180298 19.819000
572 -240.000000 0.000000
573 -239.180298 -19.819000
574 -236.726700 -39.502701
575 -232.656097 -58.916500
576 -226.996094 -77.927902
577 -219.785599 -96.406898
578 -211.073700 -114.227402
579 -200.919998 -131.267593
580 -189.393707 -147.411102
581 -176.573700 -162.547607
582 -162.547607 -176.573700
583 -147.411102 -189.393707
584 -131.267593 -200.919998
585 -114.227402 -211.073700
586 -96.406898 -219.785599
587 -77.927902 -226.996094
588 -58.916500 -232.656097
589 -39.502701 -236.726700
590 -19.819000 -239.180298
591 -0.000000 -240.000000
592 19.819000 -239.180298
593 39.502701 -236.726700
594 58.916500 -232.656097
595 77.927902 -226.996094
596 96.406898 -219.785599
597 114.227402 -211.073700
598 131.267593 -200.919998
599 147.411102 -189.393707
600 162.547607 -176.573700
601 176.573700 -162.547607
602 189.393707 -147.411102
603 200.919998 -131.267593
604 211.073700 -114.227402
605 219.785599 -96.406898
606 226.996094 -77.927902
607 232.656097 -58.916500
608 236.726700 -39.502701
609 239.180298 -19.819000
610 270.000000 0.000000
611 269.077789 22.296400
612 266.317596 44.440498
613 261.738098 66.281097
614 255.370697 87.668900
615 247.258804 108.457802
616 237.457901 128.505798
617 226.034897 147.675995
618 213.067902 165.837402
619 198.645493 182.865997
620 182.865997 198.645493
621 165.837402 213.067902
622 147.675995 226.034897
623 128.505798 237.457901
624 108.457802 247.258804
625 87.668900 255.370697
626 66.281097 261.738098
627 44.440498 266.317596
628 22.296400 269.077789
629 0.000000 270.000000
630 -22.296400 269.077789
631 -44.440498 266.317596
632 -66.281097 261.738098
633 -87.668900 255.370697
634 -108.457802 247.258804
635 -128.505798 237.457901
636 -147.675995 226.034897
637 -165.837402 213.067902
638 -182.865997 198.645493
639 -198.645493 182.865997
640 -213.067902 165.837402
641 -226.034897 147.675995
642 -237.457901 128.505798
643 -247.258804 108.457802
644 -255.370697 87.668900
645 -261.738098 66.281097
646 -266.317596 44.440498
647 -269.077789 22.296400
648 -270.000000 0.000000
649 -269.077789 -22.296400
650 -266.317596 -44.440498
651 -261.738098 -66.281097
652 -255.370697 -87.668900
653 -247.258804 -108.457802
654 -237.457901 -128.505798
655 -226.034897 -147.675995
656 -213.067902 -165.837402
657 -198.645493 -182.865997
658 -182.865997 -198.645493
659 -165.837402 -213.067902
660 -147.675995 -226.034897
661 -128.505798 -237.457901
662 -108.457802 -247.258804
663 -87.668900 -255.370697
664 -66.281097 -261.738098
665 -44.440498 -266.317596
666 -22.296400 -269.077789
667 -0.000000 -270.000000
668 22.296400 -269.077789
669 44.440498 -266.317596
670 66.281097 -261.738098
671 87.668900 -255.370697
672 108.457802 -247.258804
673 128.505798 -237.457901
674 147.675995 -226.034897
675 165.837402 -213.067902
676 182.865997 -198.645493
677 198.645493 -182.865997
678 213.067902 -165.837402
679 226.034897 -147.675995
680 237.457901 -128.505798
681 247.258804 -108.457802
682 255.370697 -87.668900
683 261.738098 -66.281097
684 266.317596 -44.440498
685 269.077789 -22.296400
686 300.000000 0.000000
687 298.975311 24.773800
688 295.908386 49.378399
689 290.820099 73.645599
690 283.745209 97.409798
691 274.731995 120.508598
692 263.842102 142.784195
693 251.149902 164.084396
694 236.742203 184.263794
695 220.717194 203.184494
696 203.184494 220.717194
697 184.263794 236.742203
698 164.084396 251.149902
699 142.784195 263.842102
700 120.508598 274.731995
701 97.409798 283.745209
702 73.645599 290.820099
703 49.378399 295.908386
704 24.773800 298.975311
705 0.000000 300.000000
706 -24.773800 298.975311
707 -49.378399 295.908386
708 -73.645599 290.820099
709 -97.409798 283.745209
710 -120.508598 274.731995
711 -142.784195 263.842102
712 -164.084396 251.149902
713 -184.263794 236.742203
714 -203.184494 220.717194
715 -220.717194 203.184494
716 -236.742203 184.263794
717 -251.149902 164.084396
718 -263.842102 142.784195
719 -274.731995 120.508598
720 -283.745209 97.409798
721 -290.820099 73.645599
722 -295.908386 49.378399
723 -298.975311 24.773800
724 -300.000000 0.000000
725 -298.975311 -24.773800
726 -295.908386 -49.378399
727 -290.820099 -73.645599
728 -283.745209 -97.409798
729 -274.731995 -120.508598
730 -263.842102 -142.784195
731 -251.149902 -164.084396
732 -236.742203 -184.263794
733 -220.717194 -203.184494
734 -203.184494 -220.717194
735 -184.263794 -236.742203
736 -164.084396 -251.149902
737 -142.784195 -263.842102
738 -120.508598 -274.731995
739 -97.409798 -283.745209
740 -73.645599 -290.820099
741 -49.378399 -295.908386
742 -24.773800 -298.975311
743 -0.000000 -300.000000
744 24.773800 -298.975311
745 49.378399 -295.908386
746 73.645599 -290.820099
747 97.409798 -283.745209
748 120.508598 -274.731995
749 142.784195 -263.842102
750 164.084396 -251.149902
751 184.263794 -236.742203
752 203.184494 -220.717194
753 220.717194 -203.184494
754 236.742203 -184.263794
755 251.149902 -164.084396
756 263.842102 -142.784195
757 274.731995 -120.508598
758 283.745209 -97.409798
759 290.820099 -73.645599
760 295.908386 -49.378399
761 298.975311 -24.773800
GVRP_SET_SECTION 
 1 686  687  761 -1
 2  724  723  725 -1
 3  705  704  706 -1
 4  743  742  744 -1
 5  11  2  3  4  5  6  7  8  9  10  12  13  14  15  16  17  18  19  20  21  22  23  24  76  77  84  85  86  87  88  89 -1
 6  695  694  696 -1
 7  714  713  715 -1
 8  733  732  734 -1
 9  752  751  753 -1
 10  358  356  357  359  360  434 -1
 11  340  264  338  339  341  342  415  416 -1
 12  396  319  320  321  395  397  471  472  473 -1
 13  453  451  452  454  455  529 -1
 14  406  330  331  404  405  407  408  481  482  483 -1
 15  386  311  384  385  387  463 -1
 16  444  443  445  446  519  520  521 -1
 17  425  348  349  423  424  426  427  500  501  502 -1
 18  719  718  720 -1
 19  738  737  739 -1
 20  700  699  701 -1
 21  757  756  758 -1
 22  690  689  691 -1
 23  709  633  708  710 -1
 24  728  652  727  729 -1
 25  747  671  746  748 -1
 26  219  142  143  215  216  217  218  220  221  222  223  295  296 -1
 27  196  192  193  194  195  197  198  199  271  272 -1
 28  180  176  177  178  179  181  182  183  184  256  257 -1
 29  239  163  236  237  238  240  241  242  314  315  316 -1
 30  467  391  466  468  543 -1
 31  477  401  476  478  553 -1
 32  487  486  488 -1
 33  515  439  514  516 -1
 34  496  420  495  497 -1
 35  506  505  507 -1
 36  230  154  229  231  232  233  304  305 -1
 37  602  601  603 -1
 38  608  607  609 -1
 39  248  172  173  245  246  247  249  250  324 -1
 40  131  127  128  129  130  132  133  134  135  136  137 -1
 41  536  535  537 -1
 42  598  522  597  599 -1
 43  288  286  287  289  290  363  364 -1
 44  568  492  567  569  644 -1
 45  587  511  586  588  663 -1
 46  540  464  539  541 -1
 47  546  470  545  547 -1
 48  550  474  549  551 -1
 49  556  555  557  632 -1
 50  560  559  561 -1
 51  575  574  576  651 -1
 52  579  578  580 -1
 53  594  518  593  595  670 -1
 54  334  258  332  333  335  336  410 -1
 55  345  343  344  346  347  421 -1
 56  353  351  352  354  355  429 -1
 57  373  297  372  374  375  449  450 -1
 58  382  383  456  457  533 -1
 59  605  604  606 -1
 60  188  185  186  187  189  190  191 -1
 61  40  26  27  28  29  30  31  32  33  34  35  36  37  38  39  41  42  43  44  45  46  47  48  49  50  51  52  115  116 -1
 62  640  639  641 -1
 63  659  658  660 -1
 64  150  78  79  80  144  145  146  147  148  149  151  152  153  226  227  228 -1
 65  646  645  647 -1
 66  665  664  666 -1
 67  688 -1
 68  692  693 -1
 69  697  698 -1
 70  702  703 -1
 71  707 -1
 72  711  635  712 -1
 73  726 -1
 74  730  654  731 -1
 75  745 -1
 76  749  673  750 -1
 77  754  755 -1
 78  759  760 -1
 79  301  224  225  298  299  300  302  303  376 -1
 80  490  414  489  491 -1
 81  509  433  508  510 -1
 82  524  448  523  525  600 -1
 83  98  25  92  93  94  95  96  97  99  100  101  102  103  174  175 -1
 84  158  81  82  83  155  156  157  159  160  161  162  234  235 -1
 85  167  90  91  164  165  166  168  169  170  171  243  244 -1
 86  327  325  326  328  329  402  403 -1
 87  389  312  313  388  390  465 -1
 88  393  317  318  392  394  469 -1
 89  399  322  323  398  400  475 -1
 90  437  361  362  435  436  438  512  513 -1
 91  441  365  366  440  442  517 -1
 92  64  53  54  55  56  57  58  59  60  61  62  63  65  66  67  68  69  70  71  72  73  74  75  138  139  140  141 -1
 93  202  200  201  203  204  205  206 -1
 94  261  259  260  262  263  337 -1
 95  292  291  293  294  367 -1
 96  418  417  419  493  494 -1
 97  534 -1
 98  538 -1
 99  548 -1
 100  558  634 -1
 101  577  653 -1
 102  596  672 -1
 103  108  104  105  106  107  109  110  111  112  113  114 -1
 104  618  542  617  619 -1
 105  620  544  621 -1
 106  628  552  627  629 -1
 107  630  554  631 -1
 108  642  643 -1
 109  649  573  648  650 -1
 110  661  662 -1
 111  668  592  667  669 -1
 112  717  716 -1
 113  721  722 -1
 114  736  735 -1
 115  740  741 -1
 116  253  251  252  254  255 -1
 117  267  265  266  268  269  270 -1
 118  275  273  274  276  277  350 -1
 119  284  282  283  285 -1
 120  308  306  307  309  310 -1
 121  370  368  369  371  447 -1
 122  379  377  378  380  381 -1
 123  611  610  612 -1
 124  613  614 -1
 125  615  616 -1
 126  623  622  624 -1
 127  625  626 -1
 128  637  636  638 -1
 129  656  655  657 -1
 130  675  674  676 -1
 131  677  678 -1
 132  679  680 -1
 133  682  681  683 -1
 134  685  684 -1
 135  123  117  118  119  120  121  122  124  125  126 -1
 136  210  207  208  209  211  212  213  214 -1
 137  280  278  279  281 -1
 138  479  480 -1
 139  485  409  484 -1
 140  498  422  499 -1
 141  504  428  503 -1
 142  527  526  528 -1
 143  531  530  532 -1
 144  562  563 -1
 145  565  564  566 -1
 146  571  570  572 -1
 147  581  582 -1
 148  584  583  585 -1
 149  590  589  591 -1
 150  412  411  413 -1
 151  431  430  432 -1
 152  459  458  460 -1
 153  461  462 -1
 DEMAND_SECTION
 1 50 
 2 70 
 3 50 
 4 70 
 5 630 
 6 70 
 7 50 
 8 50 
 9 70 
 10 120 
 11 180 
 12 210 
 13 120 
 14 200 
 15 140 
 16 150 
 17 200 
 18 70 
 19 50 
 20 70 
 21 50 
 22 50 
 23 60 
 24 100 
 25 100 
 26 290 
 27 220 
 28 230 
 29 230 
 30 130 
 31 70 
 32 70 
 33 100 
 34 100 
 35 50 
 36 140 
 37 50 
 38 70 
 39 170 
 40 230 
 41 70 
 42 60 
 43 150 
 44 130 
 45 130 
 46 100 
 47 60 
 48 60 
 49 100 
 50 70 
 51 100 
 52 70 
 53 70 
 54 130 
 55 120 
 56 120 
 57 110 
 58 90 
 59 50 
 60 130 
 61 610 
 62 70 
 63 70 
 64 340 
 65 50 
 66 50 
 67 30 
 68 40 
 69 20 
 70 40 
 71 30 
 72 90 
 73 10 
 74 50 
 75 10 
 76 30 
 77 40 
 78 60 
 79 190 
 80 60 
 81 60 
 82 130 
 83 290 
 84 250 
 85 260 
 86 130 
 87 100 
 88 80 
 89 140 
 90 140 
 91 80 
 92 530 
 93 130 
 94 120 
 95 110 
 96 70 
 97 10 
 98 10 
 99 30 
 100 20 
 101 20 
 102 60 
 103 210 
 104 60 
 105 70 
 106 100 
 107 50 
 108 40 
 109 60 
 110 20 
 111 100 
 112 40 
 113 20 
 114 60 
 115 40 
 116 110 
 117 100 
 118 100 
 119 80 
 120 90 
 121 110 
 122 90 
 123 70 
 124 20 
 125 60 
 126 70 
 127 20 
 128 50 
 129 70 
 130 70 
 131 20 
 132 60 
 133 50 
 134 40 
 135 180 
 136 160 
 137 80 
 138 60 
 139 50 
 140 50 
 141 90 
 142 70 
 143 70 
 144 40 
 145 50 
 146 70 
 147 20 
 148 70 
 149 50 
 150 70 
 151 70 
 152 70 
 153 20 
EOF
